5
15
45
40	24
1	4	11	5	21	3	19	3	10	3	
2	4	4	2	6	11	5	5	7	10	
3	4	15	4	5	5	6	11	6	5	
4	1	19	4	
5	4	7	5	12	5	6	5	4	4	
6	1	11	4	
7	5	4	11	23	2	14	4	6	2	8	4	
8	3	16	3	10	3	4	5	
9	4	5	9	5	6	7	3	23	2	
10	3	7	3	18	3	4	5	
11	4	12	6	5	5	24	4	7	7	
12	2	17	4	5	4	
13	1	20	3	
14	2	5	11	9	5	
15	3	5	11	7	4	5	5	
